20	5
0	4	13	15	1	2
1	2	20	14
2	0
3	2	19	12
4	0
5	1	8
6	0
7	2	17	16
8	2	16	17
9	1	5
10	2	8	7
11	1	4
12	1	7
13	2	3	11
14	3	3	18	10
15	3	13	14	20
16	1	21
17	1	21
18	1	21
19	1	21
20	1	21
21	0
0	0	0	0	0	0	0
1	7	2	4	0	2	1
2	9	2	0	0	4	5
3	2	1	0	1	5	0
4	5	2	1	4	4	2
5	7	1	3	2	0	2
6	10	0	1	4	0	1
7	3	0	0	3	4	4
8	8	1	0	1	5	0
9	6	0	0	2	3	2
10	3	3	4	0	4	0
11	4	0	5	0	1	5
12	7	1	5	3	0	3
13	5	3	5	2	5	4
14	2	3	4	3	5	1
15	1	1	2	4	0	0
16	1	5	0	2	2	1
17	4	1	3	4	1	1
18	6	5	0	0	4	5
19	1	5	4	2	1	2
20	5	2	0	1	3	3
21	0	0	0	0	0	0
7	7	6	7	7
